id: 1191
name: neos-941313
group: miplib2010
method: 2

Gurobi 7.0.2 (linux64, Matlab) logging started Mon Mar 26 10:15:47 2018


Gurobi 7.0.2 (linux64) logging started Mon Mar 26 10:15:47 2018

Optimize a model with 13189 rows, 167910 columns and 484080 nonzeros
Coefficient statistics:
  Matrix range     [1e+00, 1e+02]
  Objective range  [1e+01, 2e+02]
  Bounds range     [1e+00, 1e+00]
  RHS range        [1e+00, 3e+03]
Presolve removed 150 rows and 51300 columns
Presolve time: 0.11s
Presolved: 13039 rows, 116610 columns, 386280 nonzeros

Ordering time: 0.02s

Barrier statistics:
 AA' NZ     : 2.091e+05
 Factor NZ  : 8.936e+05 (roughly 60 MBytes of memory)
 Factor Ops : 6.566e+07 (less than 1 second per iteration)
 Threads    : 4

                  Objective                Residual
Iter       Primal          Dual         Primal    Dual     Compl     Time
   0   1.04249101e+07 -9.40304438e+04  6.53e+02 0.00e+00  6.42e+01     0s
   1   8.10015650e+05 -6.74813380e+04  5.97e+01 5.68e-14  5.75e+00     0s
   2   5.62917068e+04 -2.10841930e+04  3.18e+00 5.68e-14  4.17e-01     0s
   3   1.82109277e+04  5.96281591e+02  4.57e-01 4.26e-14  8.29e-02     0s
   4   1.12665010e+04  6.94020160e+03  4.08e-02 7.11e-14  1.78e-02     0s
   5   1.00771030e+04  8.41108971e+03  1.08e-02 3.55e-14  6.72e-03     0s
   6   9.76666757e+03  8.96733966e+03  5.57e-03 2.84e-14  3.19e-03     0s
   7   9.50147646e+03  9.12657920e+03  1.79e-03 2.84e-14  1.50e-03     0s
   8   9.39470148e+03  9.30863574e+03  3.86e-04 2.84e-14  3.45e-04     0s
   9   9.36181217e+03  9.36040103e+03  3.04e-06 4.26e-14  5.70e-06     0s
  10   9.36100130e+03  9.36099856e+03  4.34e-10 4.26e-14  1.11e-08     0s
  11   9.36100000e+03  9.36100000e+03  3.20e-13 5.68e-14  1.11e-11     0s

Barrier solved model in 11 iterations and 0.48 seconds
Optimal objective 9.36100000e+03

Crossover log...

       0 DPushes remaining with DInf 0.0000000e+00                 1s

   18491 PPushes remaining with PInf 0.0000000e+00                 1s
       0 PPushes remaining with PInf 0.0000000e+00                 1s

  Push phase complete: Pinf 0.0000000e+00, Dinf 3.9758419e-11      1s

Iteration    Objective       Primal Inf.    Dual Inf.      Time
   22564    9.3610000e+03   0.000000e+00   0.000000e+00      1s
   22564    9.3610000e+03   0.000000e+00   0.000000e+00      1s

Solved in 22564 iterations and 1.21 seconds
Optimal objective  9.361000000e+03
status: OPTIMAL
